109162
109162
109162
105840
99761.6
99761.6
99761.6
99761.6
99761.6
99761.6
99688.7
99688.7
99192.6
98576.4
98576.4
98525.2
95243.8
95243.8
95243.8
95243.8
95243.8
87693.6
87693.6
87693.6
87693.6
87693.6
87693.6
87693.6
87693.6
87693.6
87693.6
87693.6
87693.6
87693.6
87693.6
87693.6
87693.6
87693.6
87526.3
87526.3
87526.3
87380.4
87380.4
85322.4
85322.4
85322.4
85322.4
85322.4
85322.4
85322.4
85322.4
85322.4
85322.4
83803
82303.8
82303.8
82303.8
82303.8
82303.8
82303.8
82303.8
82303.8
82303.8
82303.8
81546.7
81546.7
81546.7
81546.7
81523.3
81523.3
79355.6
79355.6
79355.6
79355.6
79355.6
79355.6
79355.6
79355.6
79355.6
79038.2
79038.2
78648.8
78648.8
78648.8
78648.8
78539.5
78405.6
78136.9
77939.3
77939.3
77132.5
77132.5
77132.5
77132.5
77132.5
76186.7
75498.1
75498.1
75498.1
75498.1
